p tw 26 39
1 5
1 6
1 11
2 7
2 15
2 21
3 21
3 24
3 25
4 12
4 17
4 22
5 11
5 14
6 10
6 20
7 22
7 24
8 12
8 25
8 26
9 18
9 19
9 26
10 18
10 20
11 13
12 24
13 15
13 19
14 22
14 25
15 16
16 18
16 19
17 23
17 26
20 23
21 23
